p edge 500 198
e 133 149 1.000000
e 133 351 1.000000
e 149 351 1.000000
e 351 466 1.000000
e 351 411 1.000000
e 411 466 1.000000
e 435 456 1.000000
e 96 435 1.000000
e 96 456 1.000000
e 334 342 1.000000
e 119 334 1.000000
e 119 342 1.000000
e 76 446 1.000000
e 76 116 1.000000
e 116 446 1.000000
e 329 376 1.000000
e 96 329 1.000000
e 96 376 1.000000
e 67 273 1.000000
e 37 67 1.000000
e 37 273 1.000000
e 110 434 1.000000
e 110 382 1.000000
e 382 434 1.000000
e 151 221 1.000000
e 16 151 1.000000
e 16 221 1.000000
e 65 429 1.000000
e 65 351 1.000000
e 351 429 1.000000
e 8 312 1.000000
e 8 142 1.000000
e 142 312 1.000000
e 76 428 1.000000
e 44 428 1.000000
e 44 76 1.000000
e 407 447 1.000000
e 407 415 1.000000
e 415 447 1.000000
e 413 455 1.000000
e 135 455 1.000000
e 135 413 1.000000
e 231 424 1.000000
e 231 382 1.000000
e 382 424 1.000000
e 224 487 1.000000
e 72 224 1.000000
e 72 487 1.000000
e 407 450 1.000000
e 132 407 1.000000
e 132 450 1.000000
e 183 436 1.000000
e 120 183 1.000000
e 120 436 1.000000
e 250 460 1.000000
e 250 387 1.000000
e 387 460 1.000000
e 282 289 1.000000
e 220 282 1.000000
e 220 289 1.000000
e 344 455 1.000000
e 187 344 1.000000
e 187 455 1.000000
e 221 327 1.000000
e 161 221 1.000000
e 161 327 1.000000
e 61 336 1.000000
e 61 178 1.000000
e 178 336 1.000000
e 305 420 1.000000
e 305 409 1.000000
e 409 420 1.000000
e 325 354 1.000000
e 135 325 1.000000
e 135 354 1.000000
e 230 284 1.000000
e 230 313 1.000000
e 284 313 1.000000
e 70 384 1.000000
e 70 226 1.000000
e 226 384 1.000000
e 347 374 1.000000
e 228 347 1.000000
e 228 374 1.000000
e 91 275 1.000000
e 91 151 1.000000
e 151 275 1.000000
e 104 268 1.000000
e 92 104 1.000000
e 92 268 1.000000
e 183 191 1.000000
e 130 183 1.000000
e 130 191 1.000000
e 236 311 1.000000
e 135 236 1.000000
e 135 311 1.000000
e 144 203 1.000000
e 144 456 1.000000
e 203 456 1.000000
e 67 296 1.000000
e 67 252 1.000000
e 252 296 1.000000
e 282 290 1.000000
e 121 282 1.000000
e 121 290 1.000000
e 121 454 1.000000
e 100 121 1.000000
e 100 454 1.000000
e 188 360 1.000000
e 68 360 1.000000
e 68 188 1.000000
e 38 221 1.000000
e 38 334 1.000000
e 221 334 1.000000
e 323 489 1.000000
e 238 323 1.000000
e 238 489 1.000000
e 200 369 1.000000
e 2 200 1.000000
e 2 369 1.000000
e 218 478 1.000000
e 218 445 1.000000
e 445 478 1.000000
e 23 116 1.000000
e 23 73 1.000000
e 73 116 1.000000
e 255 413 1.000000
e 255 358 1.000000
e 358 413 1.000000
e 228 430 1.000000
e 228 328 1.000000
e 328 430 1.000000
e 130 376 1.000000
e 82 130 1.000000
e 82 376 1.000000
e 212 377 1.000000
e 212 445 1.000000
e 377 445 1.000000
e 129 454 1.000000
e 129 390 1.000000
e 390 454 1.000000
e 180 412 1.000000
e 104 412 1.000000
e 104 180 1.000000
e 362 438 1.000000
e 323 362 1.000000
e 323 438 1.000000
e 192 267 1.000000
e 192 367 1.000000
e 267 367 1.000000
e 337 462 1.000000
e 71 337 1.000000
e 71 462 1.000000
e 361 498 1.000000
e 309 498 1.000000
e 309 361 1.000000
e 122 371 1.000000
e 122 255 1.000000
e 255 371 1.000000
e 109 442 1.000000
e 109 317 1.000000
e 317 442 1.000000
e 22 298 1.000000
e 22 360 1.000000
e 298 360 1.000000
e 20 303 1.000000
e 20 184 1.000000
e 184 303 1.000000
e 299 373 1.000000
e 292 299 1.000000
e 292 373 1.000000
e 94 175 1.000000
e 94 152 1.000000
e 152 175 1.000000
e 99 404 1.000000
e 85 99 1.000000
e 85 404 1.000000
e 285 351 1.000000
e 58 351 1.000000
e 58 285 1.000000
e 116 462 1.000000
e 86 462 1.000000
e 86 116 1.000000
e 36 220 1.000000
e 36 330 1.000000
e 220 330 1.000000
e 305 414 1.000000
e 285 305 1.000000
e 285 414 1.000000
e 279 356 1.000000
e 20 279 1.000000
e 20 356 1.000000
e 226 498 1.000000
e 226 423 1.000000
e 423 498 1.000000
e 176 331 1.000000
e 48 176 1.000000
e 48 331 1.000000
